c *********************************
c * Circuit generated by BenCGen
c *
c * RestoringArrayDivider_3
c *
c * Ports with 1 gate(s): 46
c * Ports with 2 gate(s): 40
c * Ports with 3 gate(s): 27
c * Ports with 4 gate(s): 18
c * Ports with 5 gate(s): 9
c * Total gates: 140
c *********************************
p cnf 149 464
1 20 0
-1 -20 0
1 -19 0
20 -19 0
-1 -20 19 0
19 -16 0
-19 16 0
19 -17 0
-19 17 0
19 -18 0
-19 18 0
3 26 0
-3 -26 0
24 27 0
-24 -27 0
7 28 0
-7 -28 0
19 29 0
-19 -29 0
26 -30 0
19 -30 0
-26 -19 30 0
26 -31 0
7 -31 0
-26 -7 31 0
7 -32 0
19 -32 0
-7 -19 32 0
26 -33 0
7 -33 0
29 -33 0
27 -33 0
-26 -7 -29 -27 33 0
26 -34 0
28 -34 0
19 -34 0
27 -34 0
-26 -28 -19 -27 34 0
3 -35 0
7 -35 0
19 -35 0
-3 -7 -19 35 0
3 -36 0
28 -36 0
29 -36 0
-3 -28 -29 36 0
3 -37 0
24 -37 0
-3 -24 37 0
-30 25 0
-31 25 0
-32 25 0
30 31 32 -25 0
-33 21 0
-34 21 0
-35 21 0
-36 21 0
-37 21 0
33 34 35 36 37 -21 0
4 39 0
-4 -39 0
24 40 0
-24 -40 0
8 41 0
-8 -41 0
25 42 0
-25 -42 0
39 -43 0
25 -43 0
-39 -25 43 0
39 -44 0
8 -44 0
-39 -8 44 0
8 -45 0
25 -45 0
-8 -25 45 0
39 -46 0
8 -46 0
42 -46 0
40 -46 0
-39 -8 -42 -40 46 0
39 -47 0
41 -47 0
25 -47 0
40 -47 0
-39 -41 -25 -40 47 0
4 -48 0
8 -48 0
25 -48 0
-4 -8 -25 48 0
4 -49 0
41 -49 0
42 -49 0
-4 -41 -42 49 0
4 -50 0
24 -50 0
-4 -24 50 0
-43 38 0
-44 38 0
-45 38 0
43 44 45 -38 0
-46 22 0
-47 22 0
-48 22 0
-49 22 0
-50 22 0
46 47 48 49 50 -22 0
5 52 0
-5 -52 0
24 53 0
-24 -53 0
9 54 0
-9 -54 0
38 55 0
-38 -55 0
52 -56 0
38 -56 0
-52 -38 56 0
52 -57 0
9 -57 0
-52 -9 57 0
9 -58 0
38 -58 0
-9 -38 58 0
52 -59 0
9 -59 0
55 -59 0
53 -59 0
-52 -9 -55 -53 59 0
52 -60 0
54 -60 0
38 -60 0
53 -60 0
-52 -54 -38 -53 60 0
5 -61 0
9 -61 0
38 -61 0
-5 -9 -38 61 0
5 -62 0
54 -62 0
55 -62 0
-5 -54 -55 62 0
5 -63 0
24 -63 0
-5 -24 63 0
-56 51 0
-57 51 0
-58 51 0
56 57 58 -51 0
-59 23 0
-60 23 0
-61 23 0
-62 23 0
-63 23 0
59 60 61 62 63 -23 0
2 70 0
-2 -70 0
68 71 0
-68 -71 0
7 72 0
-7 -72 0
19 73 0
-19 -73 0
70 -74 0
19 -74 0
-70 -19 74 0
70 -75 0
7 -75 0
-70 -7 75 0
7 -76 0
19 -76 0
-7 -19 76 0
70 -77 0
7 -77 0
73 -77 0
71 -77 0
-70 -7 -73 -71 77 0
70 -78 0
72 -78 0
19 -78 0
71 -78 0
-70 -72 -19 -71 78 0
2 -79 0
7 -79 0
19 -79 0
-2 -7 -19 79 0
2 -80 0
72 -80 0
73 -80 0
-2 -72 -73 80 0
2 -81 0
68 -81 0
-2 -68 81 0
-74 69 0
-75 69 0
-76 69 0
74 75 76 -69 0
-77 65 0
-78 65 0
-79 65 0
-80 65 0
-81 65 0
77 78 79 80 81 -65 0
21 83 0
-21 -83 0
68 84 0
-68 -84 0
8 85 0
-8 -85 0
69 86 0
-69 -86 0
83 -87 0
69 -87 0
-83 -69 87 0
83 -88 0
8 -88 0
-83 -8 88 0
8 -89 0
69 -89 0
-8 -69 89 0
83 -90 0
8 -90 0
86 -90 0
84 -90 0
-83 -8 -86 -84 90 0
83 -91 0
85 -91 0
69 -91 0
84 -91 0
-83 -85 -69 -84 91 0
21 -92 0
8 -92 0
69 -92 0
-21 -8 -69 92 0
21 -93 0
85 -93 0
86 -93 0
-21 -85 -86 93 0
21 -94 0
68 -94 0
-21 -68 94 0
-87 82 0
-88 82 0
-89 82 0
87 88 89 -82 0
-90 66 0
-91 66 0
-92 66 0
-93 66 0
-94 66 0
90 91 92 93 94 -66 0
22 96 0
-22 -96 0
68 97 0
-68 -97 0
9 98 0
-9 -98 0
82 99 0
-82 -99 0
96 -100 0
82 -100 0
-96 -82 100 0
96 -101 0
9 -101 0
-96 -9 101 0
9 -102 0
82 -102 0
-9 -82 102 0
96 -103 0
9 -103 0
99 -103 0
97 -103 0
-96 -9 -99 -97 103 0
96 -104 0
98 -104 0
82 -104 0
97 -104 0
-96 -98 -82 -97 104 0
22 -105 0
9 -105 0
82 -105 0
-22 -9 -82 105 0
22 -106 0
98 -106 0
99 -106 0
-22 -98 -99 106 0
22 -107 0
68 -107 0
-22 -68 107 0
-100 95 0
-101 95 0
-102 95 0
100 101 102 -95 0
-103 67 0
-104 67 0
-105 67 0
-106 67 0
-107 67 0
103 104 105 106 107 -67 0
1 111 0
-1 -111 0
109 112 0
-109 -112 0
7 113 0
-7 -113 0
19 114 0
-19 -114 0
111 -115 0
19 -115 0
-111 -19 115 0
111 -116 0
7 -116 0
-111 -7 116 0
7 -117 0
19 -117 0
-7 -19 117 0
111 -118 0
7 -118 0
114 -118 0
112 -118 0
-111 -7 -114 -112 118 0
111 -119 0
113 -119 0
19 -119 0
112 -119 0
-111 -113 -19 -112 119 0
1 -120 0
7 -120 0
19 -120 0
-1 -7 -19 120 0
1 -121 0
113 -121 0
114 -121 0
-1 -113 -114 121 0
1 -122 0
109 -122 0
-1 -109 122 0
-115 110 0
-116 110 0
-117 110 0
115 116 117 -110 0
-118 13 0
-119 13 0
-120 13 0
-121 13 0
-122 13 0
118 119 120 121 122 -13 0
65 124 0
-65 -124 0
109 125 0
-109 -125 0
8 126 0
-8 -126 0
110 127 0
-110 -127 0
124 -128 0
110 -128 0
-124 -110 128 0
124 -129 0
8 -129 0
-124 -8 129 0
8 -130 0
110 -130 0
-8 -110 130 0
124 -131 0
8 -131 0
127 -131 0
125 -131 0
-124 -8 -127 -125 131 0
124 -132 0
126 -132 0
110 -132 0
125 -132 0
-124 -126 -110 -125 132 0
65 -133 0
8 -133 0
110 -133 0
-65 -8 -110 133 0
65 -134 0
126 -134 0
127 -134 0
-65 -126 -127 134 0
65 -135 0
109 -135 0
-65 -109 135 0
-128 123 0
-129 123 0
-130 123 0
128 129 130 -123 0
-131 14 0
-132 14 0
-133 14 0
-134 14 0
-135 14 0
131 132 133 134 135 -14 0
66 137 0
-66 -137 0
109 138 0
-109 -138 0
9 139 0
-9 -139 0
123 140 0
-123 -140 0
137 -141 0
123 -141 0
-137 -123 141 0
137 -142 0
9 -142 0
-137 -9 142 0
9 -143 0
123 -143 0
-9 -123 143 0
137 -144 0
9 -144 0
140 -144 0
138 -144 0
-137 -9 -140 -138 144 0
137 -145 0
139 -145 0
123 -145 0
138 -145 0
-137 -139 -123 -138 145 0
66 -146 0
9 -146 0
123 -146 0
-66 -9 -123 146 0
66 -147 0
139 -147 0
140 -147 0
-66 -139 -140 147 0
66 -148 0
109 -148 0
-66 -109 148 0
-141 136 0
-142 136 0
-143 136 0
141 142 143 -136 0
-144 15 0
-145 15 0
-146 15 0
-147 15 0
-148 15 0
144 145 146 147 148 -15 0
51 64 0
-51 -64 0
-6 12 0
-64 12 0
6 64 -12 0
12 24 0
-12 -24 0
95 108 0
-95 -108 0
-23 11 0
-108 11 0
23 108 -11 0
11 68 0
-11 -68 0
136 149 0
-136 -149 0
-67 10 0
-149 10 0
67 149 -10 0
10 109 0
-10 -109 0
